Running for instance ./models/c107.txt
Generating routes...
Execution time:  0.2559426  minutes
Academic license - for non-commercial use only
Warning: constraint name "Cliente esta na rota" has a space
Optimize a model with 26 rows, 5000 columns and 31928 nonzeros
Variable types: 0 continuous, 5000 integer (0 binary)
Coefficient statistics:
  Matrix range     [1e+00, 1e+00]
  Objective range  [3e+01, 2e+02]
  Bounds range     [1e+00, 1e+00]
  RHS range        [1e+00, 2e+01]
Found heuristic solution: objective 507.4698883
Presolve removed 0 rows and 1094 columns
Presolve time: 0.03s
Presolved: 26 rows, 3906 columns, 25241 nonzeros
Found heuristic solution: objective 482.2465185
Variable types: 0 continuous, 3906 integer (3906 binary)

Root relaxation: objective 2.618024e+02, 97 iterations, 0.00 seconds

    Nodes    |    Current Node    |     Objective Bounds      |     Work
 Expl Unexpl |  Obj  Depth IntInf | Incumbent    BestBd   Gap | It/Node Time

     0     0  261.80236    0   22  482.24652  261.80236  45.7%     -    0s
H    0     0                     417.1262749  261.80236  37.2%     -    0s
H    0     0                     346.1151824  261.80236  24.4%     -    0s
H    0     0                     302.0514019  261.80236  13.3%     -    0s
     0     0  266.50539    0   19  302.05140  266.50539  11.8%     -    0s
     0     0  266.50539    0   22  302.05140  266.50539  11.8%     -    0s
     0     0  266.50539    0   20  302.05140  266.50539  11.8%     -    0s
H    0     0                     301.0053534  266.50539  11.5%     -    0s
H    0     0                     294.7080368  266.50539  9.57%     -    0s
     0     0  271.27389    0   24  294.70804  271.27389  7.95%     -    0s
     0     0  271.74448    0   23  294.70804  271.74448  7.79%     -    0s
     0     0  274.52424    0   25  294.70804  274.52424  6.85%     -    0s
     0     0  276.20602    0   24  294.70804  276.20602  6.28%     -    0s
     0     0  283.48358    0   19  294.70804  283.48358  3.81%     -    0s
     0     0  283.48358    0   22  294.70804  283.48358  3.81%     -    0s
     0     0  283.48358    0   25  294.70804  283.48358  3.81%     -    0s
     0     0  283.48358    0   22  294.70804  283.48358  3.81%     -    0s
     0     0  283.48358    0   18  294.70804  283.48358  3.81%     -    0s
     0     0  283.48358    0   21  294.70804  283.48358  3.81%     -    0s
     0     0  283.48358    0   19  294.70804  283.48358  3.81%     -    0s
     0     0     cutoff    0       294.70804  294.70804  0.00%     -    0s

Cutting planes:
  MIR: 8
  Zero half: 4

Explored 1 nodes (632 simplex iterations) in 0.29 seconds
Thread count was 8 (of 8 available processors)

Solution count 6: 294.708 301.005 302.051 ... 482.247

Optimal solution found (tolerance 1.00e-04)
Best objective 2.947080368091e+02, best bound 2.947080368091e+02, gap 0.0000%
20 24 25 23 22 21
5 3 15 10
13 17 18 19 16 14
7 8 9 6 4
Distance: 294.708036809
Execution time:  0.266372966667  minutes
